HUN,8,6,704
2,24,0,27,5,25,3,26,4,30,1,29
0,24,3,29,5,21,4,22,1,27,2,23
5,25,2,24,3,27,0,26,4,21,1,25
5,21,4,26,2,25,0,30,1,28,3,23
4,28,0,24,1,21,5,23,2,27,3,21
2,29,4,22,5,27,3,22,0,29,1,30
4,29,0,26,5,23,2,22,1,27,3,28
4,30,3,30,2,29,0,29,1,27,5,22
